objective value:                                   26
lambda[1,14]*                                       4 	(obj:0)
lambda[0,15]*                                       2 	(obj:0)
lambda[1,17]*                                       2 	(obj:13)
lambda[0,17]*                                       5 	(obj:0)
lambda[1,19]*                                       4 	(obj:0)
lambda[0,19]*                                       3 	(obj:0)
